50, 669
26, 26
44, 44
24, 24
36, 36
42, 42
30, 30
2, 2
12, 12
8, 8
40, 40
48, 48
20, 20
30, 30
10, 10
10, 10
36, 36
12, 12
20, 20
50, 50
20, 20
8, 8
28, 28
22, 22
26, 26
20, 20
6, 6
50, 50
36, 36
6, 6
50, 50
24, 24
30, 30
8, 8
48, 48
2, 2
46, 46
18, 18
34, 34
12, 12
50, 50
28, 28
22, 22
46, 46
20, 20
46, 46
30, 30
24, 24
26, 26
28, 28
22, 22
